Version identifier: 22.1.0.0 | 2022-03-09 | 1a383f8ce
CPXPARAM_Threads                                 1
CPXPARAM_MIP_Strategy_VariableSelect             3
CPXPARAM_TimeLimit                               600
Retaining values of one MIP start for possible repair.
Tried aggregator 2 times.
MIP Presolve eliminated 41 rows and 1 columns.
MIP Presolve added 28 rows and 7 columns.
MIP Presolve modified 160 coefficients.
Aggregator did 7 substitutions.
Reduced MIP has 901 rows, 2100 columns, and 24679 nonzeros.
Reduced MIP has 2100 binaries, 0 generals, 0 SOSs, and 0 indicators.
Presolve time = 0.05 sec. (59.46 ticks)
Found incumbent of value 1.000000 after 0.06 sec. (64.09 ticks)
Probing time = 0.01 sec. (7.11 ticks)
Tried aggregator 1 time.
Detecting symmetries...
MIP Presolve modified 14 coefficients.
Reduced MIP has 901 rows, 2100 columns, and 25020 nonzeros.
Reduced MIP has 2100 binaries, 0 generals, 0 SOSs, and 0 indicators.
Presolve time = 0.03 sec. (29.05 ticks)
Probing time = 0.01 sec. (7.15 ticks)
Clique table members: 785.
MIP emphasis: balance optimality and feasibility.
MIP search method: dynamic search.
Parallel mode: none, using 1 thread.
Root relaxation solution time = 0.20 sec. (210.65 ticks)

        Nodes                                         Cuts/
   Node  Left     Objective  IInf  Best Integer    Best Bound    ItCnt     Gap

*     0+    0                            1.0000     5050.0000              --- 
      0     0      100.0000   409        1.0000      100.0000     1975     --- 
      0     0      100.0000   187        1.0000    Cliques: 4     2026     --- 
      0     0      100.0000   316        1.0000     Cuts: 110     2953     --- 
      0     0      100.0000   140        1.0000    Cliques: 3     3185     --- 
*     0+    0                           69.0000      100.0000            44.93%
*     0+    0                           90.0000      100.0000            11.11%
      0     0        cutoff             90.0000      100.0000     3185   11.11%
      0     0      100.0000   277       90.0000      Cuts: 53     3708   11.11%
*     0+    0                           91.0000      100.0000             9.89%
*     0+    0                           93.0000      100.0000             7.53%
      0     0        cutoff             93.0000      100.0000     3708    7.53%
Repair heuristic found nothing.
Detecting symmetries...
      0     2      100.0000   126       93.0000      100.0000     3708    7.53%
Elapsed time = 5.93 sec. (5490.38 ticks, tree = 0.01 MB, solutions = 5)
      1     3      100.0000   179       93.0000      100.0000     6393    7.53%
      3     5      100.0000   415       93.0000      100.0000     8932    7.53%
      6     8      100.0000   170       93.0000      100.0000     9240    7.53%
      9    11      100.0000   143       93.0000      100.0000     9661    7.53%
     11    13      100.0000   182       93.0000      100.0000    10912    7.53%
     14    16      100.0000   208       93.0000      100.0000    11468    7.53%
     17    19      100.0000   162       93.0000      100.0000    12150    7.53%
     20    22      100.0000   156       93.0000      100.0000    12828    7.53%
     24    26      100.0000   293       93.0000      100.0000    14298    7.53%
     36    38      100.0000   154       93.0000      100.0000    16777    7.53%
Elapsed time = 10.19 sec. (9558.54 ticks, tree = 0.24 MB, solutions = 5)
     49    51      100.0000   158       93.0000      100.0000    19465    7.53%
     60    62      100.0000   134       93.0000      100.0000    23246    7.53%
     75    77      100.0000   111       93.0000      100.0000    28511    7.53%
     87    89      100.0000   146       93.0000      100.0000    31151    7.53%
    104   106      100.0000   149       93.0000      100.0000    34766    7.53%
    126   122      100.0000   133       93.0000      100.0000    39264    7.53%
    160   133      100.0000   169       93.0000      100.0000    44233    7.53%
    177   149      100.0000   122       93.0000      100.0000    48378    7.53%
*   180+  150                           96.0000      100.0000             4.17%
    194   165      100.0000   126       96.0000      100.0000    51433    4.17%
    224   174       99.0000    86       96.0000      100.0000    57149    4.17%
Elapsed time = 21.21 sec. (19569.32 ticks, tree = 1.37 MB, solutions = 6)
    250   179      100.0000   145       96.0000      100.0000    62526    4.17%
    280   187       99.0000   102       96.0000      100.0000    67686    4.17%
    311   194       99.0000   107       96.0000      100.0000    72370    4.17%
    336   205      100.0000   130       96.0000      100.0000    76982    4.17%
    364   215       99.0000   149       96.0000      100.0000    81791    4.17%
    399   219      100.0000   119       96.0000      100.0000    87592    4.17%
    423   234      100.0000   102       96.0000      100.0000    91008    4.17%
    451   248    infeasible             96.0000      100.0000    95911    4.17%
    489   254       98.0000    95       96.0000      100.0000   101470    4.17%
*   497   253      integral     0       97.0000      100.0000   102241    3.09%
    534   257       99.0000    83       97.0000      100.0000   107184    3.09%
Elapsed time = 32.06 sec. (29313.73 ticks, tree = 2.07 MB, solutions = 7)
*   536   243      integral     0       98.0000      100.0000   107328    2.04%
    576   247      100.0000    76       98.0000      100.0000   113129    2.04%
    612   250       99.0000    99       98.0000      100.0000   120427    2.04%
    636   258      100.0000   116       98.0000      100.0000   125489    2.04%
    668   256    infeasible             98.0000      100.0000   133315    2.04%
    698   264       99.0000    91       98.0000      100.0000   139668    2.04%
    730   266       99.0000   122       98.0000      100.0000   146246    2.04%
    760   272       99.0000   108       98.0000      100.0000   153687    2.04%
    796   285    infeasible             98.0000      100.0000   158860    2.04%
    827   295       99.0000   117       98.0000      100.0000   165041    2.04%
Elapsed time = 41.72 sec. (38023.24 ticks, tree = 2.40 MB, solutions = 8)
    863   299    infeasible             98.0000      100.0000   170895    2.04%
    892   303       99.0000    97       98.0000      100.0000   178987    2.04%
    917   306      100.0000   130       98.0000      100.0000   186384    2.04%
    948   310       99.0000   101       98.0000      100.0000   192505    2.04%
    980   314       99.0000    82       98.0000      100.0000   199241    2.04%
   1007   327       99.0000    79       98.0000      100.0000   205942    2.04%
   1038   332    infeasible             98.0000      100.0000   212323    2.04%
   1072   337       99.0000    70       98.0000      100.0000   219932    2.04%
   1097   337       99.0000    95       98.0000      100.0000   230348    2.04%
   1120   353       99.0000   133       98.0000      100.0000   234049    2.04%
Elapsed time = 52.54 sec. (47737.68 ticks, tree = 2.89 MB, solutions = 8)
   1148   364       99.0000   120       98.0000      100.0000   239497    2.04%
   1175   376      100.0000   111       98.0000      100.0000   245134    2.04%
   1205   386       99.0000    90       98.0000      100.0000   250359    2.04%
   1237   389      100.0000   115       98.0000      100.0000   257609    2.04%
   1269   404       99.0000    79       98.0000      100.0000   262314    2.04%
   1300   409       99.0000    77       98.0000      100.0000   268443    2.04%
   1332   418      100.0000    98       98.0000      100.0000   273433    2.04%
   1366   422       99.0000    68       98.0000      100.0000   280925    2.04%
   1404   429      100.0000    81       98.0000      100.0000   286314    2.04%
   1448   428    infeasible             98.0000      100.0000   292905    2.04%
Elapsed time = 63.38 sec. (57484.55 ticks, tree = 3.53 MB, solutions = 8)
   1486   437       99.0000    51       98.0000      100.0000   298836    2.04%
   1528   446      100.0000   109       98.0000      100.0000   304502    2.04%
   1563   451       99.0000   101       98.0000      100.0000   310878    2.04%
   1593   458    infeasible             98.0000      100.0000   316407    2.04%
   1621   465    infeasible             98.0000      100.0000   321640    2.04%
   1647   481      100.0000   112       98.0000      100.0000   324624    2.04%
   1671   499       99.0000   170       98.0000      100.0000   328087    2.04%
   1697   507       99.0000   138       98.0000      100.0000   333996    2.04%
*  1719   267      integral     0       99.0000      100.0000   337133    1.01%
   1730   267      100.0000    69       99.0000      100.0000   339539    1.01%
   1757   273      100.0000   130       99.0000      100.0000   346916    1.01%
Elapsed time = 74.23 sec. (67258.18 ticks, tree = 2.22 MB, solutions = 9)
   1783   282      100.0000    96       99.0000      100.0000   352710    1.01%
   1809   284      100.0000   125       99.0000      100.0000   360726    1.01%
   1837   288    infeasible             99.0000      100.0000   368477    1.01%
   1867   290      100.0000    65       99.0000      100.0000   376790    1.01%
   1897   290      100.0000    90       99.0000      100.0000   386249    1.01%
   1922   295      100.0000    78       99.0000      100.0000   393830    1.01%

Performing restart 1

Repeating presolve.
Tried aggregator 1 time.
MIP Presolve eliminated 1 rows and 100 columns.
Reduced MIP has 900 rows, 2000 columns, and 17720 nonzeros.
Reduced MIP has 2000 binaries, 0 generals, 0 SOSs, and 0 indicators.
Presolve time = 0.01 sec. (10.94 ticks)
Tried aggregator 1 time.
Reduced MIP has 900 rows, 2000 columns, and 17720 nonzeros.
Reduced MIP has 2000 binaries, 0 generals, 0 SOSs, and 0 indicators.
Presolve time = 0.01 sec. (13.24 ticks)
Represolve time = 0.15 sec. (81.26 ticks)
   1925     0      100.0000   176       99.0000    Cliques: 2   396295    1.01%
   1925     0      100.0000   310       99.0000     Cuts: 192   397282    1.01%
   1925     0      100.0000   115       99.0000    Cliques: 2   397368    1.01%
   1925     0      100.0000   180       99.0000     Cuts: 161   397846    1.01%
   1925     2      100.0000    99       99.0000      100.0000   397846    1.01%
   1931     8      100.0000   220       99.0000      100.0000   402633    1.01%
   1939    16      100.0000   227       99.0000      100.0000   404576    1.01%
   1948    25      100.0000   172       99.0000      100.0000   407761    1.01%
Elapsed time = 90.24 sec. (81731.14 ticks, tree = 0.15 MB, solutions = 9)
   1955    32      100.0000   166       99.0000      100.0000   409751    1.01%
   1964    41      100.0000   293       99.0000      100.0000   413086    1.01%
   1975    52      100.0000   263       99.0000      100.0000   416089    1.01%
   1985    62      100.0000   283       99.0000      100.0000   420712    1.01%
   2000    77      100.0000   196       99.0000      100.0000   423353    1.01%
   2014    91      100.0000   190       99.0000      100.0000   425444    1.01%
   2026   103      100.0000   241       99.0000      100.0000   429025    1.01%
   2042   119      100.0000   206       99.0000      100.0000   434324    1.01%
   2057   133      100.0000   207       99.0000      100.0000   437786    1.01%
   2071   147      100.0000   191       99.0000      100.0000   440019    1.01%
Elapsed time = 101.26 sec. (92121.76 ticks, tree = 1.06 MB, solutions = 9)
   2096   153    infeasible             99.0000      100.0000   445471    1.01%
   2111   164      100.0000   186       99.0000      100.0000   448619    1.01%
   2125   178      100.0000   223       99.0000      100.0000   451493    1.01%
   2139   192      100.0000   220       99.0000      100.0000   454979    1.01%
   2147   200      100.0000   210       99.0000      100.0000   456617    1.01%
   2159   212      100.0000   205       99.0000      100.0000   460818    1.01%
   2170   223      100.0000   251       99.0000      100.0000   463289    1.01%
   2185   238      100.0000   244       99.0000      100.0000   466308    1.01%
   2200   253      100.0000   218       99.0000      100.0000   469666    1.01%
   2301   279    infeasible             99.0000      100.0000   491005    1.01%
Elapsed time = 114.85 sec. (104881.00 ticks, tree = 2.15 MB, solutions = 9)
   2391   303      100.0000   298       99.0000      100.0000   510064    1.01%
   2461   333      100.0000   157       99.0000      100.0000   531827    1.01%
   2532   385      100.0000   233       99.0000      100.0000   537959    1.01%
   2594   439      100.0000   243       99.0000      100.0000   547314    1.01%
   2625   469      100.0000   183       99.0000      100.0000   557354    1.01%
   2680   521      100.0000   136       99.0000      100.0000   576756    1.01%
   2781   535      100.0000   198       99.0000      100.0000   605412    1.01%
   2850   582      100.0000   198       99.0000      100.0000   626697    1.01%
   2907   635    infeasible             99.0000      100.0000   654477    1.01%
   2987   677      100.0000   193       99.0000      100.0000   670497    1.01%
Elapsed time = 158.94 sec. (144811.21 ticks, tree = 5.39 MB, solutions = 9)
   3070   700      100.0000   196       99.0000      100.0000   692265    1.01%
   3158   722      100.0000   184       99.0000      100.0000   716344    1.01%
   3272   737      100.0000   137       99.0000      100.0000   740792    1.01%
   3372   748      100.0000   291       99.0000      100.0000   768463    1.01%
   3451   784      100.0000   194       99.0000      100.0000   786705    1.01%
   3533   808      100.0000   225       99.0000      100.0000   809869    1.01%
   3646   814      100.0000   156       99.0000      100.0000   838595    1.01%
   3774   823      100.0000   131       99.0000      100.0000   865221    1.01%
   3906   822      100.0000   154       99.0000      100.0000   891870    1.01%
   3993   880      100.0000   166       99.0000      100.0000   909084    1.01%
Elapsed time = 201.66 sec. (183268.04 ticks, tree = 7.10 MB, solutions = 9)
   4122   874      100.0000   149       99.0000      100.0000   933884    1.01%
   4258   880      100.0000   136       99.0000      100.0000   956905    1.01%
   4359   898      100.0000   150       99.0000      100.0000   983541    1.01%
   4464   923      100.0000   168       99.0000      100.0000  1009288    1.01%
   4572   943      100.0000   195       99.0000      100.0000  1035653    1.01%
   4692   951      100.0000   191       99.0000      100.0000  1062360    1.01%
   4833   956      100.0000   194       99.0000      100.0000  1085906    1.01%
   4963   969      100.0000   134       99.0000      100.0000  1106886    1.01%
   5075   986      100.0000   183       99.0000      100.0000  1130804    1.01%
   5203   999      100.0000   163       99.0000      100.0000  1150674    1.01%
Elapsed time = 244.46 sec. (221641.67 ticks, tree = 8.10 MB, solutions = 9)
   5340   990      100.0000   154       99.0000      100.0000  1177965    1.01%
   5450  1019      100.0000   111       99.0000      100.0000  1198077    1.01%
   5566  1030    infeasible             99.0000      100.0000  1223056    1.01%
   5693  1043      100.0000   152       99.0000      100.0000  1243046    1.01%
   5802  1071      100.0000   107       99.0000      100.0000  1267089    1.01%
   5925  1093      100.0000   170       99.0000      100.0000  1286886    1.01%
   6045  1121      100.0000   157       99.0000      100.0000  1308635    1.01%
   6169  1139      100.0000   168       99.0000      100.0000  1330130    1.01%
   6288  1153      100.0000   164       99.0000      100.0000  1355455    1.01%
   6416  1164      100.0000   167       99.0000      100.0000  1377088    1.01%
Elapsed time = 287.48 sec. (260056.34 ticks, tree = 9.55 MB, solutions = 9)
   6543  1180      100.0000   156       99.0000      100.0000  1399387    1.01%
   6662  1198      100.0000   175       99.0000      100.0000  1421700    1.01%
   6776  1217      100.0000   142       99.0000      100.0000  1443927    1.01%
   6914  1223      100.0000   148       99.0000      100.0000  1467393    1.01%
   7049  1228      100.0000   136       99.0000      100.0000  1490424    1.01%
   7171  1239      100.0000   179       99.0000      100.0000  1513884    1.01%
   7272  1267      100.0000   154       99.0000      100.0000  1539072    1.01%
   7381  1292      100.0000   133       99.0000      100.0000  1563824    1.01%
   7506  1303      100.0000   147       99.0000      100.0000  1587508    1.01%
   7649  1301    infeasible             99.0000      100.0000  1610192    1.01%
Elapsed time = 330.26 sec. (298418.81 ticks, tree = 10.70 MB, solutions = 9)
   7779  1313      100.0000    99       99.0000      100.0000  1632253    1.01%
   7900  1322      100.0000   163       99.0000      100.0000  1660028    1.01%
   8019  1338      100.0000   174       99.0000      100.0000  1682363    1.01%
   8128  1361      100.0000   144       99.0000      100.0000  1705455    1.01%
   8258  1375    infeasible             99.0000      100.0000  1726350    1.01%
   8379  1389      100.0000   130       99.0000      100.0000  1747765    1.01%
   8496  1401      100.0000   166       99.0000      100.0000  1770336    1.01%
   8621  1404      100.0000   134       99.0000      100.0000  1796328    1.01%
   8762  1412      100.0000   157       99.0000      100.0000  1818048    1.01%
   8907  1419      100.0000   136       99.0000      100.0000  1839313    1.01%
Elapsed time = 372.71 sec. (336736.48 ticks, tree = 11.70 MB, solutions = 9)
   9044  1427      100.0000   204       99.0000      100.0000  1861511    1.01%
   9173  1442      100.0000   175       99.0000      100.0000  1883523    1.01%
   9308  1438      100.0000   150       99.0000      100.0000  1909129    1.01%
   9427  1444      100.0000   153       99.0000      100.0000  1932580    1.01%
   9543  1450    infeasible             99.0000      100.0000  1960906    1.01%
   9662  1457      100.0000   164       99.0000      100.0000  1988096    1.01%
   9795  1459      100.0000   118       99.0000      100.0000  2010668    1.01%
   9924  1452      100.0000   186       99.0000      100.0000  2043822    1.01%
  10042  1456    infeasible             99.0000      100.0000  2070392    1.01%
  10172  1462      100.0000   179       99.0000      100.0000  2095637    1.01%
Elapsed time = 415.83 sec. (375135.08 ticks, tree = 12.07 MB, solutions = 9)
  10296  1485      100.0000   150       99.0000      100.0000  2115008    1.01%
  10410  1509      100.0000   183       99.0000      100.0000  2136246    1.01%
  10529  1525      100.0000   161       99.0000      100.0000  2160763    1.01%
  10653  1538      100.0000   171       99.0000      100.0000  2182733    1.01%
  10764  1564      100.0000   178       99.0000      100.0000  2202904    1.01%
  10888  1577      100.0000   160       99.0000      100.0000  2225700    1.01%
  11022  1581    infeasible             99.0000      100.0000  2247533    1.01%
  11153  1587      100.0000   180       99.0000      100.0000  2270047    1.01%
  11292  1588      100.0000   165       99.0000      100.0000  2290525    1.01%
  11416  1592      100.0000   147       99.0000      100.0000  2315341    1.01%
Elapsed time = 458.50 sec. (413444.37 ticks, tree = 13.18 MB, solutions = 9)
  11525  1601      100.0000   176       99.0000      100.0000  2330605    1.01%
  11647  1619      100.0000   171       99.0000      100.0000  2351107    1.01%
  11764  1631      100.0000   173       99.0000      100.0000  2374574    1.01%
  11901  1637    infeasible             99.0000      100.0000  2394589    1.01%
  12044  1635      100.0000   195       99.0000      100.0000  2416839    1.01%
  12154  1669      100.0000   145       99.0000      100.0000  2434730    1.01%
  12286  1671      100.0000    99       99.0000      100.0000  2459520    1.01%
  12424  1670    infeasible             99.0000      100.0000  2486716    1.01%
  12558  1669      100.0000   107       99.0000      100.0000  2515835    1.01%
  12690  1671      100.0000   101       99.0000      100.0000  2539740    1.01%
Elapsed time = 506.35 sec. (456246.74 ticks, tree = 13.86 MB, solutions = 9)
  12825  1671      100.0000   177       99.0000      100.0000  2562464    1.01%
  12958  1682      100.0000   159       99.0000      100.0000  2582180    1.01%
  13098  1683      100.0000   162       99.0000      100.0000  2603643    1.01%
  13200  1702      100.0000   246       99.0000      100.0000  2625741    1.01%
  13306  1717      100.0000   171       99.0000      100.0000  2653092    1.01%
  13434  1725      100.0000   134       99.0000      100.0000  2677181    1.01%
  13569  1726      100.0000   177       99.0000      100.0000  2701077    1.01%
Starting limited solution polishing.
  13625  1740      100.0000   134       99.0000      100.0000  2714002    1.01%
  13754  1746      100.0000   151       99.0000      100.0000  2741955    1.01%
  13875  1761      100.0000   151       99.0000      100.0000  2769195    1.01%
Elapsed time = 552.30 sec. (497572.63 ticks, tree = 14.63 MB, solutions = 9)
  14018  1758    infeasible             99.0000      100.0000  2798064    1.01%
  14149  1759      100.0000   133       99.0000      100.0000  2824304    1.01%
  14274  1765      100.0000   172       99.0000      100.0000  2852754    1.01%
  14401  1773      100.0000   154       99.0000      100.0000  2878316    1.01%
  14533  1777      100.0000   157       99.0000      100.0000  2898904    1.01%
  14616  1797      100.0000   144       99.0000      100.0000  2921566    1.01%
  14749  1793      100.0000   160       99.0000      100.0000  2945118    1.01%
  14825  1798      100.0000   196       99.0000      100.0000  2957377    1.01%
  14956  1794      100.0000   204       99.0000      100.0000  2981545    1.01%
  15025  1798      100.0000   193       99.0000      100.0000  2993625    1.01%
Elapsed time = 597.17 sec. (538136.83 ticks, tree = 14.95 MB, solutions = 9)

Clique cuts applied:  65
Zero-half cuts applied:  6

Root node processing (before b&c):
  Real time             =    5.92 sec. (5481.90 ticks)
Sequential b&c:
  Real time             =  594.08 sec. (535210.49 ticks)
                          ------------
Total (root+branch&cut) =  600.00 sec. (540692.39 ticks)
Primal:	99
Dual:	100
Status:	Feasible
Time:	599.98
Sequence:
	15
	11
	17
	1
	14
	9
	7
	2
	16
	6
	2
	5
	13
	12
	3
	5
	19
	8
	10
	12
	3
	5
	12
	14
	16
	12
	0
	14
	15
	11
	3
	13
	19
	4
	9
	19
	8
	16
	0
	2
	16
	11
	0
	4
	19
	7
	3
	11
	7
	1
	3
	11
	15
	7
	3
	1
	11
	8
	0
	16
	2
	11
	17
	1
	8
	9
	10
	2
	13
	16
	19
	0
	4
	11
	19
	4
	6
	12
	16
	18
	6
	15
	17
	14
	1
	9
	18
	12
	10
	9
	19
	4
	17
	19
	10
	18
	9
	15
	8
